Cu                                      
   1.00000000000000     
     5.1825231485606595    0.0000000000000000    0.0000000000000000
     0.0000000000000000    5.1825231485606595    0.0000000000000000
     0.0000000000000000    0.0000000000000000   21.4968958930052487
   Cu
    16
Selective dynamics
Direct
  0.2500000000000000  0.2500000000000000  0.3721467527134052   F   F   F
  0.7500000000000000  0.2500000000000000  0.3721467527134052   F   F   F
  0.2500000000000000  0.7500000000000000  0.3721467527134052   F   F   F
  0.7500000000000000  0.7500000000000000  0.3721467527134052   F   F   F
  0.0000000000000000  0.0000000000000000  0.4573822509044660   F   F   F
  0.5000000000000000  0.0000000000000000  0.4573822509044660   F   F   F
  0.0000000000000000  0.5000000000000000  0.4573822509044660   F   F   F
  0.5000000000000000  0.5000000000000000  0.4573822509044660   F   F   F
  0.2500000000000000  0.2500000000000000  0.5428315702327140   T   T   T
  0.7500000000000000  0.2500000000000000  0.5428315718533270   T   T   T
  0.2500000000000000  0.7500000000000000  0.5428315819354168   T   T   T
  0.7500000000000000  0.7500000000000000  0.5428315702327140   T   T   T
  0.0000000000000000  0.0000000000000000  0.6264244418238007   T   T   T
  0.5000000000000000  0.0000000000000000  0.6264244441815592   T   T   T
  0.0000000000000000  0.5000000000000000  0.6264244441815592   T   T   T
  0.5000000000000000  0.5000000000000000  0.6264244488672830   T   T   T
 
  0.00000000E+00  0.00000000E+00  0.00000000E+00
  0.00000000E+00  0.00000000E+00  0.00000000E+00
  0.00000000E+00  0.00000000E+00  0.00000000E+00
  0.00000000E+00  0.00000000E+00  0.00000000E+00
  0.00000000E+00  0.00000000E+00  0.00000000E+00
  0.00000000E+00  0.00000000E+00  0.00000000E+00
  0.00000000E+00  0.00000000E+00  0.00000000E+00
  0.00000000E+00  0.00000000E+00  0.00000000E+00
  0.00000000E+00  0.00000000E+00  0.00000000E+00
  0.00000000E+00  0.00000000E+00  0.00000000E+00
  0.00000000E+00  0.00000000E+00  0.00000000E+00
  0.00000000E+00  0.00000000E+00  0.00000000E+00
  0.00000000E+00  0.00000000E+00  0.00000000E+00
  0.00000000E+00  0.00000000E+00  0.00000000E+00
  0.00000000E+00  0.00000000E+00  0.00000000E+00
  0.00000000E+00  0.00000000E+00  0.00000000E+00
