Cu  O                                   
   1.00000000000000     
     5.1825231485606595    0.0000000000000000    0.0000000000000000
     0.0000000000000000    5.1825231485606595    0.0000000000000000
     0.0000000000000000    0.0000000000000000   21.4968958930052487
   Cu   O 
    16     1
Selective dynamics
Direct
  0.2500000000000000  0.2500000000000000  0.3721467527134052   F   F   F
  0.7500000000000000  0.2500000000000000  0.3721467527134052   F   F   F
  0.2500000000000000  0.7500000000000000  0.3721467527134052   F   F   F
  0.7500000000000000  0.7500000000000000  0.3721467527134052   F   F   F
  0.0000000000000000  0.0000000000000000  0.4573822509044660   F   F   F
  0.5000000000000000  0.0000000000000000  0.4573822509044660   F   F   F
  0.0000000000000000  0.5000000000000000  0.4573822509044660   F   F   F
  0.5000000000000000  0.5000000000000000  0.4573822509044660   F   F   F
  0.2499495133831573  0.2500291431919024  0.5385565184882921   T   T   T
  0.7500912721877597  0.2502971830133518  0.5420226179613792   T   T   T
  0.2498965876527919  0.7501272907146728  0.5420818453834144   T   T   T
  0.7498741223553296  0.7503419338846768  0.5459137462097559   T   T   T
  0.9968495043124719  0.9969059694155007  0.6277091218120745   T   T   T
  0.5035590265764398  0.9969437034329331  0.6276922349472045   T   T   T
  0.9964845014150256  0.5032884173812420  0.6277752553036748   T   T   T
  0.5032013159496600  0.5033512580762078  0.6277313892338796   T   T   T
  0.2501179751377833  0.2501768083634346  0.6636845282630546   T   T   T
 
  0.00000000E+00  0.00000000E+00  0.00000000E+00
  0.00000000E+00  0.00000000E+00  0.00000000E+00
  0.00000000E+00  0.00000000E+00  0.00000000E+00
  0.00000000E+00  0.00000000E+00  0.00000000E+00
  0.00000000E+00  0.00000000E+00  0.00000000E+00
  0.00000000E+00  0.00000000E+00  0.00000000E+00
  0.00000000E+00  0.00000000E+00  0.00000000E+00
  0.00000000E+00  0.00000000E+00  0.00000000E+00
  0.00000000E+00  0.00000000E+00  0.00000000E+00
  0.00000000E+00  0.00000000E+00  0.00000000E+00
  0.00000000E+00  0.00000000E+00  0.00000000E+00
  0.00000000E+00  0.00000000E+00  0.00000000E+00
  0.00000000E+00  0.00000000E+00  0.00000000E+00
  0.00000000E+00  0.00000000E+00  0.00000000E+00
  0.00000000E+00  0.00000000E+00  0.00000000E+00
  0.00000000E+00  0.00000000E+00  0.00000000E+00
  0.00000000E+00  0.00000000E+00  0.00000000E+00
