Cu  O  C                                
   1.00000000000000     
     5.1825231485606595    0.0000000000000000    0.0000000000000000
     0.0000000000000000    5.1825231485606595    0.0000000000000000
     0.0000000000000000    0.0000000000000000   21.4968958930052487
   Cu   O    C 
    16     1     1
Selective dynamics
Direct
  0.3657737231075657  0.3850693436254886  0.3721467527134052   F   F   F
  0.8657737231075657  0.3850693436254886  0.3721467527134052   F   F   F
  0.3657737231075657  0.8850693436254886  0.3721467527134052   F   F   F
  0.8657737231075657  0.8850693436254886  0.3721467527134052   F   F   F
  0.1157737231075657  0.1350693436254886  0.4573822509044660   F   F   F
  0.6157737231075657  0.1350693436254886  0.4573822509044660   F   F   F
  0.1157737231075657  0.6350693436254886  0.4573822509044660   F   F   F
  0.6157737231075657  0.6350693436254886  0.4573822509044660   F   F   F
  0.3618477382544896  0.3885229657485283  0.5429609281719152   T   T   T
  0.8686890898499016  0.3880602349683997  0.5428454111150032   T   T   T
  0.3618338055347934  0.8813444639555854  0.5429488181043709   T   T   T
  0.8688086802235659  0.8817441498100393  0.5428402530757950   T   T   T
  0.1157738115822795  0.1349025909008716  0.6248381762842143   T   T   T
  0.6150556495111559  0.1346751774101591  0.6234386190508019   T   T   T
  0.1160364156220410  0.6349912650774385  0.6338432338212456   T   T   T
  0.6151524413595979  0.6347865588295178  0.6247514964124150   T   T   T
  0.0651493831702652  0.6317706721563638  0.7747420786607861   T   T   T
  0.0879640507832065  0.6331613182092397  0.7212870555076805   T   T   T
 
  0.00000000E+00  0.00000000E+00  0.00000000E+00
  0.00000000E+00  0.00000000E+00  0.00000000E+00
  0.00000000E+00  0.00000000E+00  0.00000000E+00
  0.00000000E+00  0.00000000E+00  0.00000000E+00
  0.00000000E+00  0.00000000E+00  0.00000000E+00
  0.00000000E+00  0.00000000E+00  0.00000000E+00
  0.00000000E+00  0.00000000E+00  0.00000000E+00
  0.00000000E+00  0.00000000E+00  0.00000000E+00
  0.00000000E+00  0.00000000E+00  0.00000000E+00
  0.00000000E+00  0.00000000E+00  0.00000000E+00
  0.00000000E+00  0.00000000E+00  0.00000000E+00
  0.00000000E+00  0.00000000E+00  0.00000000E+00
  0.00000000E+00  0.00000000E+00  0.00000000E+00
  0.00000000E+00  0.00000000E+00  0.00000000E+00
  0.00000000E+00  0.00000000E+00  0.00000000E+00
  0.00000000E+00  0.00000000E+00  0.00000000E+00
  0.00000000E+00  0.00000000E+00  0.00000000E+00
  0.00000000E+00  0.00000000E+00  0.00000000E+00
