INCAR created by Atomic Simulation Environment
 ENCUT = 500.000000
 SIGMA = 0.100000
 ZAB_VDW = -1.886700
 EDIFF = 1.00e-07
 EDIFFG = -1.00e-02
 ALGO = fast
 GGA = BF
 PREC = normal
 IBRION = 1
 ISMEAR = 1
 ISPIN = 1
 ISTART = 1
 ISYM = 0
 LORBIT = 11
 NELM = 450
 NSW = 50
 LUSE_VDW = .TRUE.
 LREAL = .FALSE.
