 C  O 
 1.0000000000000000
    10.0000000000000000    0.0000000000000000    0.0000000000000000
     0.0000000000000000   10.0000000000000000    0.0000000000000000
     0.0000000000000000    0.0000000000000000   10.0000000000000000
   1   1
Cartesian
  5.2000615731101165  5.0000000000000000  4.9966042623293569
  5.1999384268898750  5.0000000000000000  3.8647377376706751
