 O  H 
 1.0000000000000000
    10.0000000000000000    0.0000000000000000    0.0000000000000000
     0.0000000000000000   10.0000000000000000    0.0000000000000000
     0.0000000000000000    0.0000000000000000   10.0000000000000000
   1   2
Cartesian
  5.0000000000000000  5.0021549057063002  5.3968342096400006
  5.0000000000000000  5.7622763446455192  4.8024091949484307
  5.0000000000000000  4.2355687496481806  4.8207566768537458
