 O  H                                   
   1.00000000000000     
    10.0000000000000000    0.0000000000000000    0.0000000000000000
     0.0000000000000000   10.0000000000000000    0.0000000000000000
     0.0000000000000000    0.0000000000000000   10.0000000000000000
   O    H 
     1     2
Direct
  0.5000000000000000  0.5002154905706320  0.5396834209640033
  0.5000000000000000  0.5762276344645514  0.4802409194948396
  0.5000000000000000  0.4235568749648166  0.4820756676853719
 
  0.00000000E+00  0.00000000E+00  0.00000000E+00
  0.00000000E+00  0.00000000E+00  0.00000000E+00
  0.00000000E+00  0.00000000E+00  0.00000000E+00
