Cu  H                                   
   1.00000000000000     
     5.1825231485606595    0.0000000000000000    0.0000000000000000
     0.0000000000000000    5.1825231485606595    0.0000000000000000
     0.0000000000000000    0.0000000000000000   21.4968958930052487
   Cu   H 
    16     1
Selective dynamics
Direct
  0.2500000000000000  0.2500000000000000  0.3721467527134052   F   F   F
  0.7500000000000000  0.2500000000000000  0.3721467527134052   F   F   F
  0.2500000000000000  0.7500000000000000  0.3721467527134052   F   F   F
  0.7500000000000000  0.7500000000000000  0.3721467527134052   F   F   F
  0.0000000000000000  0.0000000000000000  0.4573822509044660   F   F   F
  0.5000000000000000  0.0000000000000000  0.4573822509044660   F   F   F
  0.0000000000000000  0.5000000000000000  0.4573822509044660   F   F   F
  0.5000000000000000  0.5000000000000000  0.4573822509044660   F   F   F
  0.2505284377133066  0.2487423277749059  0.5414119125713412   T   T   T
  0.7507156917430606  0.2549195160080870  0.5440424320715564   T   T   T
  0.2506912835312605  0.7508709193328968  0.5414134010826288   T   T   T
  0.7505464902753189  0.7444957940574142  0.5440524399872899   T   T   T
  0.9989162751043708  0.9996784963261618  0.6247225975350332   T   T   T
  0.5018735985670801  0.9994824902060557  0.6246802730784964   T   T   T
  0.0046678948412904  0.4994895892424580  0.6293968588734558   T   T   T
  0.4988305538594915  0.4993986555058640  0.6293652946710893   T   T   T
  0.2520958303454535  0.4979487591475973  0.6783124178884563   T   T   T
 
  0.00000000E+00  0.00000000E+00  0.00000000E+00
  0.00000000E+00  0.00000000E+00  0.00000000E+00
  0.00000000E+00  0.00000000E+00  0.00000000E+00
  0.00000000E+00  0.00000000E+00  0.00000000E+00
  0.00000000E+00  0.00000000E+00  0.00000000E+00
  0.00000000E+00  0.00000000E+00  0.00000000E+00
  0.00000000E+00  0.00000000E+00  0.00000000E+00
  0.00000000E+00  0.00000000E+00  0.00000000E+00
  0.00000000E+00  0.00000000E+00  0.00000000E+00
  0.00000000E+00  0.00000000E+00  0.00000000E+00
  0.00000000E+00  0.00000000E+00  0.00000000E+00
  0.00000000E+00  0.00000000E+00  0.00000000E+00
  0.00000000E+00  0.00000000E+00  0.00000000E+00
  0.00000000E+00  0.00000000E+00  0.00000000E+00
  0.00000000E+00  0.00000000E+00  0.00000000E+00
  0.00000000E+00  0.00000000E+00  0.00000000E+00
  0.00000000E+00  0.00000000E+00  0.00000000E+00
