 H 
 1.0000000000000000
    10.0000000000000000    0.0000000000000000    0.0000000000000000
     0.0000000000000000   10.0000000000000000    0.0000000000000000
     0.0000000000000000    0.0000000000000000   10.0000000000000000
   2
Cartesian
  5.2000149391232755  5.0000000000000000  4.7884886891624427
  5.1999850608767160  5.0000000000000000  4.0628533108375420
