Cu 
 1.0000000000000000
     5.1825231485606595    0.0000000000000000    0.0000000000000000
     0.0000000000000000    5.1825231485606595    0.0000000000000000
     0.0000000000000000    0.0000000000000000   21.4968958930052487
 Cu 
  16
Selective dynamics
Cartesian
  1.2956307871401649  1.2956307871401649  8.0000000000000409   F   F   F
  3.8868923614204949  1.2956307871401649  8.0000000000000409   F   F   F
  1.2956307871401649  3.8868923614204949  8.0000000000000409   F   F   F
  3.8868923614204949  3.8868923614204949  8.0000000000000409   F   F   F
  0.0000000000000000  0.0000000000000000  9.8322986310017111   F   F   F
  2.5912615742803298  0.0000000000000000  9.8322986310017111   F   F   F
  0.0000000000000000  2.5912615742803298  9.8322986310017111   F   F   F
  2.5912615742803298  2.5912615742803298  9.8322986310017111   F   F   F
  1.2954862955604860  1.2985632345833771 11.6299631621454633   T   T   T
  3.8854790988664814  1.3120672768432344 11.6723496076632784   T   T   T
  1.2929179332847154  3.8880502054623234 11.6722879922240690   T   T   T
  3.8860170427865377  3.8689124569468651 11.7141210352886471   T   T   T
  5.1742191475331447  0.0085071861286819 13.4439197872295217   T   T   T
  2.6112666439848708  5.1739380452479216 13.4333399129693838   T   T   T
  5.1314587553801401  2.6331746146883028 13.5162002691458696   T   T   T
  2.6170296078160393  2.6125801596131399 13.5248372531255754   T   T   T
