Cu  O  H                                
   1.00000000000000     
     5.1825231485606595    0.0000000000000000    0.0000000000000000
     0.0000000000000000    5.1825231485606595    0.0000000000000000
     0.0000000000000000    0.0000000000000000   21.4968958930052487
   Cu   O    H 
    16     1     1
Selective dynamics
Direct
  0.2500000000000000  0.2500000000000000  0.3721467527134052   F   F   F
  0.7500000000000000  0.2500000000000000  0.3721467527134052   F   F   F
  0.2500000000000000  0.7500000000000000  0.3721467527134052   F   F   F
  0.7500000000000000  0.7500000000000000  0.3721467527134052   F   F   F
  0.0000000000000000  0.0000000000000000  0.4573822509044660   F   F   F
  0.5000000000000000  0.0000000000000000  0.4573822509044660   F   F   F
  0.0000000000000000  0.5000000000000000  0.4573822509044660   F   F   F
  0.5000000000000000  0.5000000000000000  0.4573822509044660   F   F   F
  0.2499721194531048  0.2505658339305299  0.5410066281211172   T   T   T
  0.7497273022206556  0.2531715226795725  0.5429783753784321   T   T   T
  0.2494765380148465  0.7502234131925007  0.5429755091302297   T   T   T
  0.7498311018380690  0.7465306658632826  0.5449215130218050   T   T   T
  0.9983976914739259  0.0016415143521442  0.6253888865696169   T   T   T
  0.5038601023345350  0.9983434510437021  0.6248967283383635   T   T   T
  0.9901468084721046  0.5080873812246480  0.6287512548983329   T   T   T
  0.5049721019659827  0.5041135533256096  0.6291530330909936   T   T   T
  0.2440189870450737  0.3409028033598318  0.6892639962629303   T   T   T
  0.2418670479007190  0.3967519755669073  0.7323202858091307   T   T   T
 
  0.00000000E+00  0.00000000E+00  0.00000000E+00
  0.00000000E+00  0.00000000E+00  0.00000000E+00
  0.00000000E+00  0.00000000E+00  0.00000000E+00
  0.00000000E+00  0.00000000E+00  0.00000000E+00
  0.00000000E+00  0.00000000E+00  0.00000000E+00
  0.00000000E+00  0.00000000E+00  0.00000000E+00
  0.00000000E+00  0.00000000E+00  0.00000000E+00
  0.00000000E+00  0.00000000E+00  0.00000000E+00
  0.00000000E+00  0.00000000E+00  0.00000000E+00
  0.00000000E+00  0.00000000E+00  0.00000000E+00
  0.00000000E+00  0.00000000E+00  0.00000000E+00
  0.00000000E+00  0.00000000E+00  0.00000000E+00
  0.00000000E+00  0.00000000E+00  0.00000000E+00
  0.00000000E+00  0.00000000E+00  0.00000000E+00
  0.00000000E+00  0.00000000E+00  0.00000000E+00
  0.00000000E+00  0.00000000E+00  0.00000000E+00
  0.00000000E+00  0.00000000E+00  0.00000000E+00
  0.00000000E+00  0.00000000E+00  0.00000000E+00
